<?xml version = "1.0" standalone="yes"?>
<!-- This file has been generated by DOcplex version 2.23.222  -->
<CPLEXSolution version="1.0">
 <header
   problemName="CVRP"
   objectiveValue="11330.1"
  />
 <variables>
  <variable name="x_0_2" index="1" value="1.00000"/>
  <variable name="x_0_4" index="3" value="1.00000"/>
  <variable name="x_0_5" index="4" value="1.00000"/>
  <variable name="x_0_7" index="6" value="1.00000"/>
  <variable name="x_0_8" index="7" value="1.00000"/>
  <variable name="x_0_10" index="9" value="1.00000"/>
  <variable name="x_0_11" index="10" value="1.00000"/>
  <variable name="x_0_12" index="11" value="1.00000"/>
  <variable name="x_0_14" index="13" value="1.00000"/>
  <variable name="x_1_0" index="18" value="1.00000"/>
  <variable name="x_2_16" index="51" value="1.00000"/>
  <variable name="x_3_0" index="54" value="1.00000"/>
  <variable name="x_4_13" index="84" value="1.00000"/>
  <variable name="x_5_6" index="95" value="1.00000"/>
  <variable name="x_6_0" index="108" value="1.00000"/>
  <variable name="x_7_1" index="127" value="1.00000"/>
  <variable name="x_8_3" index="147" value="1.00000"/>
  <variable name="x_9_0" index="162" value="1.00000"/>
  <variable name="x_10_17" index="196" value="1.00000"/>
  <variable name="x_11_9" index="207" value="1.00000"/>
  <variable name="x_12_18" index="233" value="1.00000"/>
  <variable name="x_13_0" index="234" value="1.00000"/>
  <variable name="x_14_0" index="252" value="1.00000"/>
  <variable name="x_15_0" index="270" value="1.00000"/>
  <variable name="x_16_0" index="288" value="1.00000"/>
  <variable name="x_17_0" index="306" value="1.00000"/>
  <variable name="x_18_15" index="339" value="1.00000"/>
  <variable name="u_1" index="342" value="28.00000"/>
  <variable name="u_2" index="343" value="8.00000"/>
  <variable name="u_3" index="344" value="28.00000"/>
  <variable name="u_4" index="345" value="19.00000"/>
  <variable name="u_5" index="346" value="23.00000"/>
  <variable name="u_6" index="347" value="28.00000"/>
  <variable name="u_7" index="348" value="9.00000"/>
  <variable name="u_8" index="349" value="8.00000"/>
  <variable name="u_9" index="350" value="28.00000"/>
  <variable name="u_10" index="351" value="7.00000"/>
  <variable name="u_11" index="352" value="22.00000"/>
  <variable name="u_12" index="353" value="4.00000"/>
  <variable name="u_13" index="354" value="28.00000"/>
  <variable name="u_14" index="355" value="26.00000"/>
  <variable name="u_15" index="356" value="28.00000"/>
  <variable name="u_16" index="357" value="27.00000"/>
  <variable name="u_17" index="358" value="27.00000"/>
  <variable name="u_18" index="359" value="25.00000"/>
 </variables>
</CPLEXSolution>
